1000
[101,104,106,108,110,111,112,114,115,116,117,118,120,122,124,126,128,131,132,133,135,136,137,139,141,142,143,144,145,147,149,150,152,153,154,155,156,157,159,160,161,162,163,164,165,166,167,169,170,172,173,175,177,178,180,181,185,186,188,189,190,191,194,195,196,198,200,202,203,205,207,208,210,211,212,214,215,216,217,218,219,223,224,225,228,229,230,232,234,235,237,239,241,242,244,245,247,248,252,253,255,257,259,260,261,262,264,266,267,269,270,271,275,276,277,278,279,280,281,282,283,284,286,288,289,291,299,300,301,302,303,304,305,306,307,308,310,312,313,315,316,319,320,321,323,324,326,327,328,329,332,333,334,335,337,338,339,340,341,343,345,346,348,349,352,353,355,357,358,359,360,361,362,363,367,368,371,372,373,376,378,379,380,382,383,384,388,389,391,392,397,399,402,404,405,406,407,409,410,411,412,413,416,418,419,421,422,423,424,426,427,428,429,430,431,433,434,436,437,438,442,444,445,446,450,451,453,454,455,456,457,458,459,460,463,464,466,467,469,470,472,474,477,478,481,482,483,485,486,487,488,489,490,491,494,497,499,500,501,503,504,505,509,510,511,513,514,516,519,520,523,524,525,526,527,528,532,533,534,536,541,544,545,546,549,550,551,554,555,556,557,558,560,561,562,563,564,565,566,567,568,569,570,571,572,573,574,575,579,580,581,583,584,585,586,587,590,591,592,593,594,596,601,603,604,605,606,607,609,610,611,613,614,616,618,619,620,621,623,624,627,628,631,634,635,636,641,642,643,644,645,647,648,649,650,651,652,656,658,659,660,661,662,663,664,665,666,672,673,675,679,681,682,683,684,687,689,691,692,693,694,695,698,699,702,704,706,708,709,710,711,712,714,715,718,719,720,721,722,724,725,726,729,730,731,732,737,738,739,740,741,742,743,744,745,747,748,750,752,755,756,757,758,760,761,762,763,764,765,767,768,769,770,772,773,774,776,778,779,781,783,785,786,787,788,790,791,792,793,798,799]
[1,1,2,1,2,1,1,1,1,1,1,1,1,1,3,1,1,1,1,1,1,1,2,3,1,2,1,3,2,1,2,1,2,1,2,2,1,1,1,2,2,1,2,1,1,3,1,1,2,2,1,1,1,2,1,4,1,3,1,2,2,6,1,1,1,1,3,2,1,2,1,1,1,1,1,1,2,2,2,2,2,1,1,1,1,1,2,3,2,2,1,2,1,1,2,2,1,1,1,1,2,2,2,3,1,1,2,2,3,1,2,3,2,2,2,3,1,2,1,2,1,1,1,1,1,4,1,1,1,2,4,2,1,2,1,1,1,1,2,2,2,2,3,1,1,3,3,1,1,1,2,2,2,2,1,1,1,3,1,1,1,1,1,1,2,2,1,3,1,1,1,1,1,2,1,1,1,1,2,2,2,2,1,1,1,1,2,1,3,3,1,2,3,4,1,1,1,4,1,2,2,3,1,2,2,1,1,1,1,1,2,2,1,1,2,1,2,2,2,4,1,1,1,3,1,3,1,4,2,1,3,1,1,2,1,1,2,1,1,3,1,1,1,1,1,2,2,1,1,2,1,1,1,1,3,2,1,3,3,1,2,1,1,2,2,1,2,2,1,2,1,2,1,3,2,2,1,1,1,2,3,1,3,1,1,2,2,3,1,1,1,1,2,2,1,2,1,2,1,3,1,3,1,1,4,3,2,4,1,1,1,5,2,1,1,2,2,2,1,2,3,2,2,1,1,1,1,4,2,1,1,2,2,2,1,1,1,3,2,1,1,3,2,1,3,1,1,1,2,2,1,1,2,1,1,1,1,2,1,1,2,1,3,3,2,3,2,3,1,3,1,4,1,2,2,4,1,2,3,2,1,2,1,2,1,1,2,1,1,2,3,2,1,1,3,1,1,1,1,1,1,1,1,1,3,1,4,2,2,2,1,2,1,1,2,1,1,1,1,2,2,2,2,2,2,4,1,2,2,1,1,2,1,1,2,1,1,1,1,3,3,2,4,1,1,1,1,3,1,3,4]
